StringID Type x y demand ReadyTime DueDate ServiceTime
D0 d 35 35 0 0 230 0
Dt d 35 35 0 0 230 0
S0 f 35 35 0 0 230 0
S1 f 64 37 0 0 230 0
S13 f 21 22 0 0 230 0
C91 c3 15 19 1 77 107 10
C28 c3 41 37 16 183 213 10
C75 c3 49 11 18 49 79 10
C78 c1 61 52 3 158 188 10
C95 c2 25 24 20 130 160 10
P0 p 27 48 0 0 230 5
param Q := 60.63
param CV := 200
param r := 1
param g := 0.49
param V := 1
